p cnf 15 21
-15 11 5 0
-15 -10 -7 0
15 -8 -4 0
-14 11 -10 0
14 -11 8 0
-14 -11 -8 0
-14 -7 -2 0
-13 -10 -4 0
-13 -9 7 0
13 8 -2 0
-13 5 2 0
-13 5 1 0
12 6 -2 0
11 -7 -5 0
10 9 4 0
-10 -8 4 0
-10 8 2 0
10 -5 -4 0
7 -5 -4 0
7 5 2 0
7 3 1 0
